This is Ipopt version 3.12.13, running with linear solver ma57.

Number of nonzeros in equality constraint Jacobian...:        0
Number of nonzeros in inequality constraint Jacobian.:     9144
Number of nonzeros in Lagrangian Hessian.............:       21

Total number of variables............................:        6
                     variables with only lower bounds:        0
                variables with lower and upper bounds:        6
                     variables with only upper bounds:        0
Total number of equality constraints.................:        0
Total number of inequality constraints...............:     1524
        inequality constraints with only lower bounds:        0
   inequality constraints with lower and upper bounds:        0
        inequality constraints with only upper bounds:     1524

iter    objective    inf_pr   inf_du lg(mu)  ||d||  lg(rg) alpha_du alpha_pr  ls
   0  9.0015470e-02 0.00e+00 7.65e+00   0.0 0.00e+00    -  0.00e+00 0.00e+00   0
   1  7.2992205e-02 0.00e+00 7.77e-02  -5.1 3.82e-02    -  9.23e-01 1.00e+00f  1
   2  4.5113702e-02 0.00e+00 5.39e-03  -2.3 1.68e-01    -  9.33e-01 1.00e+00h  1
   3  1.3659379e-02 0.00e+00 1.40e-02  -2.7 1.31e-01    -  9.91e-01 1.00e+00h  1
   4  2.1678148e-04 0.00e+00 1.58e-03  -3.8 1.56e-01    -  9.70e-01 1.00e+00h  1
   5  3.5458256e-07 0.00e+00 3.94e-05  -5.3 3.71e-02    -  9.91e-01 1.00e+00h  1

Number of Iterations....: 5

                                   (scaled)                 (unscaled)
Objective...............:   3.5458256127282133e-07    3.5458256127282133e-07
Dual infeasibility......:   3.9368541510369280e-05    3.9368541510369280e-05
Constraint violation....:   0.0000000000000000e+00    0.0000000000000000e+00
Complementarity.........:   6.8300575190232622e-05    6.8300575190232622e-05
Overall NLP error.......:   6.8300575190232622e-05    6.8300575190232622e-05


Number of objective function evaluations             = 6
Number of objective gradient evaluations             = 6
Number of equality constraint evaluations            = 0
Number of inequality constraint evaluations          = 6
Number of equality constraint Jacobian evaluations   = 0
Number of inequality constraint Jacobian evaluations = 6
Number of Lagrangian Hessian evaluations             = 5
Total CPU secs in IPOPT (w/o function evaluations)   =      0.020
Total CPU secs in NLP function evaluations           =      0.063

EXIT: Optimal Solution Found.
